c A SAT instance generated from a 3-CNF formula that had 36 clauses and 9 variables
p cnf 9 36
5 6 1 0
5 2 9 0
8 3 4 0
9 -8 -1 0
-5 -2 -3 0
-6 4 5 0
8 3 -4 0
2 8 9 0
-4 3 1 0
9 -8 5 0
4 -2 -7 0
4 5 -2 0
7 -1 2 0
-4 -7 6 0
8 -9 -4 0
-1 -3 -8 0
-1 3 -2 0
4 2 5 0
-1 -7 4 0
2 -9 -4 0
-2 3 -1 0
-5 9 -7 0
-6 7 8 0
-7 -5 9 0
-7 -4 9 0
1 3 7 0
-8 -9 -5 0
-9 -6 -4 0
-4 5 1 0
7 -3 -5 0
-4 3 8 0
2 4 -9 0
-6 3 8 0
-8 -7 9 0
-5 -6 -4 0
5 8 1 0
